analyze/results_flowersnark/final_miplib_symretope_if_extended_generating_set_cpx_v802__settings_final_nosym_norestarts__0__square23.mps.gz.sol
solution status: optimal solution found
objective value:                                   13
x_1_1_11                                            1 	(obj:1)
x_1_12_4                                            1 	(obj:1)
x_1_16_3                                            1 	(obj:1)
x_1_19_5                                            1 	(obj:1)
x_4_16_1                                            1 	(obj:1)
x_4_17_2                                            1 	(obj:1)
x_5_12_5                                            1 	(obj:1)
x_6_17_7                                            1 	(obj:1)
x_10_12_2                                           1 	(obj:1)
x_10_14_3                                           1 	(obj:1)
x_12_1_12                                           1 	(obj:1)
x_12_13_1                                           1 	(obj:1)
x_13_13_11                                          1 	(obj:1)
y_12                                                1 	(obj:0)
y_11                                                2 	(obj:0)
y_7                                                 1 	(obj:0)
y_5                                                 2 	(obj:0)
y_4                                                 1 	(obj:0)
y_3                                                 2 	(obj:0)
y_2                                                 2 	(obj:0)
y_1                                                 2 	(obj:0)
